p cnf 1289
-22 -400
-23 -403
-24 -406
-25 -409
-26 -412
-27 -415
-28 -418
-29 -421
-30 -424
-31 -427
-32 -430
-33 -433
-34 -436
-35 -439
-36 -442
-37 -445
-38 -448
-39 -451
-40 -454
-41 -457
-42 -460
-43 461
-44 462
-45 463
-46 464
-47 465
-48 466
-49 467
-50 -23
-50 -24
23 24 50
-51 -25
-51 -26
25 26 51
-52 -27
-52 -28
27 28 52
-53 -29
-53 -30
29 30 53
-54 -31
-54 -32
31 32 54
-55 -33
-55 -34
33 34 55
-56 -35
-56 -36
35 36 56
-57 -37
-57 -38
37 38 57
-58 -39
-58 -40
39 40 58
-59 -41
-59 -42
41 42 59
-60 -43
-60 -44
43 44 60
-61 -45
-61 -46
45 46 61
-62 -47
-62 -48
47 48 62
-63 50
-63 51
-50 -51 63
-64 52
-64 53
-52 -53 64
-65 54
-65 55
-54 -55 65
-66 56
-66 57
-56 -57 66
-67 58
-67 59
-58 -59 67
-68 60
-68 61
-60 -61 68
-69 -49
-69 62
49 -62 69
-70 63
-70 64
-63 -64 70
-71 65
-71 66
-65 -66 71
-72 67
-72 68
-67 -68 72
-73 70
-73 71
-70 -71 73
-74 69
-74 72
-69 -72 74
-75 73
-75 74
-73 -74 75
-76 -22
-76 23
22 -23 76
-77 22
-77 -23
-22 23 77
-78 -76
-78 -77
76 77 78
-79 22
-79 23
-22 -23 79
-80 -22
-80 -78
22 78 80
-81 22
-81 78
-22 -78 81
-82 -80
-82 -81
80 81 82
-83 22
-83 -78
-22 78 83
-84 -79
-84 -83
79 83 84
-85 -23
-85 24
23 -24 85
-86 23
-86 -24
-23 24 86
-87 -85
-87 -86
85 86 87
-88 23
-88 24
-23 -24 88
-89 84
-89 -87
-84 87 89
-90 -84
-90 87
84 -87 90
-91 -89
-91 -90
89 90 91
-92 -84
-92 -87
84 87 92
-93 -88
-93 -92
88 92 93
-94 -24
-94 25
24 -25 94
-95 24
-95 -25
-24 25 95
-96 -94
-96 -95
94 95 96
-97 24
-97 25
-24 -25 97
-98 93
-98 -96
-93 96 98
-99 -93
-99 96
93 -96 99
-100 -98
-100 -99
98 99 100
-101 -93
-101 -96
93 96 101
-102 -97
-102 -101
97 101 102
-103 -25
-103 26
25 -26 103
-104 25
-104 -26
-25 26 104
-105 -103
-105 -104
103 104 105
-106 25
-106 26
-25 -26 106
-107 102
-107 -105
-102 105 107
-108 -102
-108 105
102 -105 108
-109 -107
-109 -108
107 108 109
-110 -102
-110 -105
102 105 110
-111 -106
-111 -110
106 110 111
-112 -26
-112 27
26 -27 112
-113 26
-113 -27
-26 27 113
-114 -112
-114 -113
112 113 114
-115 26
-115 27
-26 -27 115
-116 111
-116 -114
-111 114 116
-117 -111
-117 114
111 -114 117
-118 -116
-118 -117
116 117 118
-119 -111
-119 -114
111 114 119
-120 -115
-120 -119
115 119 120
-121 -27
-121 28
27 -28 121
-122 27
-122 -28
-27 28 122
-123 -121
-123 -122
121 122 123
-124 27
-124 28
-27 -28 124
-125 120
-125 -123
-120 123 125
-126 -120
-126 123
120 -123 126
-127 -125
-127 -126
125 126 127
-128 -120
-128 -123
120 123 128
-129 -124
-129 -128
124 128 129
-130 -28
-130 29
28 -29 130
-131 28
-131 -29
-28 29 131
-132 -130
-132 -131
130 131 132
-133 28
-133 29
-28 -29 133
-134 129
-134 -132
-129 132 134
-135 -129
-135 132
129 -132 135
-136 -134
-136 -135
134 135 136
-137 -129
-137 -132
129 132 137
-138 -133
-138 -137
133 137 138
-139 -29
-139 30
29 -30 139
-140 29
-140 -30
-29 30 140
-141 -139
-141 -140
139 140 141
-142 29
-142 30
-29 -30 142
-143 138
-143 -141
-138 141 143
-144 -138
-144 141
138 -141 144
-145 -143
-145 -144
143 144 145
-146 -138
-146 -141
138 141 146
-147 -142
-147 -146
142 146 147
-148 -30
-148 31
30 -31 148
-149 30
-149 -31
-30 31 149
-150 -148
-150 -149
148 149 150
-151 30
-151 31
-30 -31 151
-152 147
-152 -150
-147 150 152
-153 -147
-153 150
147 -150 153
-154 -152
-154 -153
152 153 154
-155 -147
-155 -150
147 150 155
-156 -151
-156 -155
151 155 156
-157 -31
-157 32
31 -32 157
-158 31
-158 -32
-31 32 158
-159 -157
-159 -158
157 158 159
-160 31
-160 32
-31 -32 160
-161 156
-161 -159
-156 159 161
-162 -156
-162 159
156 -159 162
-163 -161
-163 -162
161 162 163
-164 -156
-164 -159
156 159 164
-165 -160
-165 -164
160 164 165
-166 -32
-166 33
32 -33 166
-167 32
-167 -33
-32 33 167
-168 -166
-168 -167
166 167 168
-169 32
-169 33
-32 -33 169
-170 165
-170 -168
-165 168 170
-171 -165
-171 168
165 -168 171
-172 -170
-172 -171
170 171 172
-173 -165
-173 -168
165 168 173
-174 -169
-174 -173
169 173 174
-175 -33
-175 34
33 -34 175
-176 33
-176 -34
-33 34 176
-177 -175
-177 -176
175 176 177
-178 33
-178 34
-33 -34 178
-179 174
-179 -177
-174 177 179
-180 -174
-180 177
174 -177 180
-181 -179
-181 -180
179 180 181
-182 -174
-182 -177
174 177 182
-183 -178
-183 -182
178 182 183
-184 -34
-184 35
34 -35 184
-185 34
-185 -35
-34 35 185
-186 -184
-186 -185
184 185 186
-187 34
-187 35
-34 -35 187
-188 183
-188 -186
-183 186 188
-189 -183
-189 186
183 -186 189
-190 -188
-190 -189
188 189 190
-191 -183
-191 -186
183 186 191
-192 -187
-192 -191
187 191 192
-193 -35
-193 36
35 -36 193
-194 35
-194 -36
-35 36 194
-195 -193
-195 -194
193 194 195
-196 35
-196 36
-35 -36 196
-197 192
-197 -195
-192 195 197
-198 -192
-198 195
192 -195 198
-199 -197
-199 -198
197 198 199
-200 -192
-200 -195
192 195 200
-201 -196
-201 -200
196 200 201
-202 -36
-202 37
36 -37 202
-203 36
-203 -37
-36 37 203
-204 -202
-204 -203
202 203 204
-205 36
-205 37
-36 -37 205
-206 201
-206 -204
-201 204 206
-207 -201
-207 204
201 -204 207
-208 -206
-208 -207
206 207 208
-209 -201
-209 -204
201 204 209
-210 -205
-210 -209
205 209 210
-211 -37
-211 38
37 -38 211
-212 37
-212 -38
-37 38 212
-213 -211
-213 -212
211 212 213
-214 37
-214 38
-37 -38 214
-215 210
-215 -213
-210 213 215
-216 -210
-216 213
210 -213 216
-217 -215
-217 -216
215 216 217
-218 -210
-218 -213
210 213 218
-219 -214
-219 -218
214 218 219
-220 -38
-220 39
38 -39 220
-221 38
-221 -39
-38 39 221
-222 -220
-222 -221
220 221 222
-223 38
-223 39
-38 -39 223
-224 219
-224 -222
-219 222 224
-225 -219
-225 222
219 -222 225
-226 -224
-226 -225
224 225 226
-227 -219
-227 -222
219 222 227
-228 -223
-228 -227
223 227 228
-229 -39
-229 40
39 -40 229
-230 39
-230 -40
-39 40 230
-231 -229
-231 -230
229 230 231
-232 39
-232 40
-39 -40 232
-233 228
-233 -231
-228 231 233
-234 -228
-234 231
228 -231 234
-235 -233
-235 -234
233 234 235
-236 -228
-236 -231
228 231 236
-237 -232
-237 -236
232 236 237
-238 -40
-238 41
40 -41 238
-239 40
-239 -41
-40 41 239
-240 -238
-240 -239
238 239 240
-241 40
-241 41
-40 -41 241
-242 237
-242 -240
-237 240 242
-243 -237
-243 240
237 -240 243
-244 -242
-244 -243
242 243 244
-245 -237
-245 -240
237 240 245
-246 -241
-246 -245
241 245 246
-247 -41
-247 42
41 -42 247
-248 41
-248 -42
-41 42 248
-249 -247
-249 -248
247 248 249
-250 41
-250 42
-41 -42 250
-251 246
-251 -249
-246 249 251
-252 -246
-252 249
246 -249 252
-253 -251
-253 -252
251 252 253
-254 -246
-254 -249
246 249 254
-255 -250
-255 -254
250 254 255
-256 -42
-256 43
42 -43 256
-257 42
-257 -43
-42 43 257
-258 -256
-258 -257
256 257 258
-259 42
-259 43
-42 -43 259
-260 255
-260 -258
-255 258 260
-261 -255
-261 258
255 -258 261
-262 -260
-262 -261
260 261 262
-263 -255
-263 -258
255 258 263
-264 -259
-264 -263
259 263 264
-265 -43
-265 44
43 -44 265
-266 43
-266 -44
-43 44 266
-267 -265
-267 -266
265 266 267
-268 43
-268 44
-43 -44 268
-269 264
-269 -267
-264 267 269
-270 -264
-270 267
264 -267 270
-271 -269
-271 -270
269 270 271
-272 -264
-272 -267
264 267 272
-273 -268
-273 -272
268 272 273
-274 -44
-274 45
44 -45 274
-275 44
-275 -45
-44 45 275
-276 -274
-276 -275
274 275 276
-277 44
-277 45
-44 -45 277
-278 273
-278 -276
-273 276 278
-279 -273
-279 276
273 -276 279
-280 -278
-280 -279
278 279 280
-281 -273
-281 -276
273 276 281
-282 -277
-282 -281
277 281 282
-283 -45
-283 46
45 -46 283
-284 45
-284 -46
-45 46 284
-285 -283
-285 -284
283 284 285
-286 45
-286 46
-45 -46 286
-287 282
-287 -285
-282 285 287
-288 -282
-288 285
282 -285 288
-289 -287
-289 -288
287 288 289
-290 -282
-290 -285
282 285 290
-291 -286
-291 -290
286 290 291
-292 -46
-292 47
46 -47 292
-293 46
-293 -47
-46 47 293
-294 -292
-294 -293
292 293 294
-295 46
-295 47
-46 -47 295
-296 291
-296 -294
-291 294 296
-297 -291
-297 294
291 -294 297
-298 -296
-298 -297
296 297 298
-299 -291
-299 -294
291 294 299
-300 -295
-300 -299
295 299 300
-301 -47
-301 48
47 -48 301
-302 47
-302 -48
-47 48 302
-303 -301
-303 -302
301 302 303
-304 47
-304 48
-47 -48 304
-305 300
-305 -303
-300 303 305
-306 -300
-306 303
300 -303 306
-307 -305
-307 -306
305 306 307
-308 -300
-308 -303
300 303 308
-309 -304
-309 -308
304 308 309
-310 -48
-310 49
48 -49 310
-311 48
-311 -49
-48 49 311
-312 -310
-312 -311
310 311 312
-313 48
-313 49
-48 -49 313
-314 309
-314 -312
-309 312 314
-315 -309
-315 312
309 -312 315
-316 -314
-316 -315
314 315 316
-317 -309
-317 -312
309 312 317
-318 -313
-318 -317
313 317 318
-319 22
-319 -82
-22 82 319
-320 -22
-320 24
22 -24 320
-321 -319
-321 -320
319 320 321
-322 22
-322 -91
-22 91 322
-323 -22
-323 25
22 -25 323
-324 -322
-324 -323
322 323 324
-325 22
-325 -100
-22 100 325
-326 -22
-326 26
22 -26 326
-327 -325
-327 -326
325 326 327
-328 22
-328 -109
-22 109 328
-329 -22
-329 27
22 -27 329
-330 -328
-330 -329
328 329 330
-331 22
-331 -118
-22 118 331
-332 -22
-332 28
22 -28 332
-333 -331
-333 -332
331 332 333
-334 22
-334 -127
-22 127 334
-335 -22
-335 29
22 -29 335
-336 -334
-336 -335
334 335 336
-337 22
-337 -136
-22 136 337
-338 -22
-338 30
22 -30 338
-339 -337
-339 -338
337 338 339
-340 22
-340 -145
-22 145 340
-341 -22
-341 31
22 -31 341
-342 -340
-342 -341
340 341 342
-343 22
-343 -154
-22 154 343
-344 -22
-344 32
22 -32 344
-345 -343
-345 -344
343 344 345
-346 22
-346 -163
-22 163 346
-347 -22
-347 33
22 -33 347
-348 -346
-348 -347
346 347 348
-349 22
-349 -172
-22 172 349
-350 -22
-350 34
22 -34 350
-351 -349
-351 -350
349 350 351
-352 22
-352 -181
-22 181 352
-353 -22
-353 35
22 -35 353
-354 -352
-354 -353
352 353 354
-355 22
-355 -190
-22 190 355
-356 -22
-356 36
22 -36 356
-357 -355
-357 -356
355 356 357
-358 22
-358 -199
-22 199 358
-359 -22
-359 37
22 -37 359
-360 -358
-360 -359
358 359 360
-361 22
-361 -208
-22 208 361
-362 -22
-362 38
22 -38 362
-363 -361
-363 -362
361 362 363
-364 22
-364 -217
-22 217 364
-365 -22
-365 39
22 -39 365
-366 -364
-366 -365
364 365 366
-367 22
-367 -226
-22 226 367
-368 -22
-368 40
22 -40 368
-369 -367
-369 -368
367 368 369
-370 22
-370 -235
-22 235 370
-371 -22
-371 41
22 -41 371
-372 -370
-372 -371
370 371 372
-373 22
-373 -244
-22 244 373
-374 -22
-374 42
22 -42 374
-375 -373
-375 -374
373 374 375
-376 22
-376 -253
-22 253 376
-377 -22
-377 43
22 -43 377
-378 -376
-378 -377
376 377 378
-379 22
-379 -262
-22 262 379
-380 -22
-380 44
22 -44 380
-381 -379
-381 -380
379 380 381
-382 22
-382 -271
-22 271 382
-383 -22
-383 45
22 -45 383
-384 -382
-384 -383
382 383 384
-385 22
-385 -280
-22 280 385
-386 -22
-386 46
22 -46 386
-387 -385
-387 -386
385 386 387
-388 22
-388 -289
-22 289 388
-389 -22
-389 47
22 -47 389
-390 -388
-390 -389
388 389 390
-391 22
-391 -298
-22 298 391
-392 -22
-392 48
22 -48 392
-393 -391
-393 -392
391 392 393
-394 22
-394 -307
-22 307 394
-395 -22
-395 49
22 -49 395
-396 -394
-396 -395
394 395 396
-397 22
-397 -316
-22 316 397
-398 1
-398 75
-1 -75 398
-399 -75
-399 76
75 -76 399
-400 -398
-400 -399
398 399 400
-401 2
-401 75
-2 -75 401
-402 -75
-402 -321
75 321 402
-403 -401
-403 -402
401 402 403
-404 3
-404 75
-3 -75 404
-405 -75
-405 -324
75 324 405
-406 -404
-406 -405
404 405 406
-407 4
-407 75
-4 -75 407
-408 -75
-408 -327
75 327 408
-409 -407
-409 -408
407 408 409
-410 5
-410 75
-5 -75 410
-411 -75
-411 -330
75 330 411
-412 -410
-412 -411
410 411 412
-413 6
-413 75
-6 -75 413
-414 -75
-414 -333
75 333 414
-415 -413
-415 -414
413 414 415
-416 7
-416 75
-7 -75 416
-417 -75
-417 -336
75 336 417
-418 -416
-418 -417
416 417 418
-419 8
-419 75
-8 -75 419
-420 -75
-420 -339
75 339 420
-421 -419
-421 -420
419 420 421
-422 9
-422 75
-9 -75 422
-423 -75
-423 -342
75 342 423
-424 -422
-424 -423
422 423 424
-425 10
-425 75
-10 -75 425
-426 -75
-426 -345
75 345 426
-427 -425
-427 -426
425 426 427
-428 11
-428 75
-11 -75 428
-429 -75
-429 -348
75 348 429
-430 -428
-430 -429
428 429 430
-431 12
-431 75
-12 -75 431
-432 -75
-432 -351
75 351 432
-433 -431
-433 -432
431 432 433
-434 13
-434 75
-13 -75 434
-435 -75
-435 -354
75 354 435
-436 -434
-436 -435
434 435 436
-437 14
-437 75
-14 -75 437
-438 -75
-438 -357
75 357 438
-439 -437
-439 -438
437 438 439
-440 15
-440 75
-15 -75 440
-441 -75
-441 -360
75 360 441
-442 -440
-442 -441
440 441 442
-443 16
-443 75
-16 -75 443
-444 -75
-444 -363
75 363 444
-445 -443
-445 -444
443 444 445
-446 17
-446 75
-17 -75 446
-447 -75
-447 -366
75 366 447
-448 -446
-448 -447
446 447 448
-449 18
-449 75
-18 -75 449
-450 -75
-450 -369
75 369 450
-451 -449
-451 -450
449 450 451
-452 19
-452 75
-19 -75 452
-453 -75
-453 -372
75 372 453
-454 -452
-454 -453
452 453 454
-455 20
-455 75
-20 -75 455
-456 -75
-456 -375
75 375 456
-457 -455
-457 -456
455 456 457
-458 21
-458 75
-21 -75 458
-459 -75
-459 -378
75 378 459
-460 -458
-460 -459
458 459 460
-461 -75
-461 -381
75 381 461
-462 -75
-462 -384
75 384 462
-463 -75
-463 -387
75 387 463
-464 -75
-464 -390
75 390 464
-465 -75
-465 -393
75 393 465
-466 -75
-466 -396
75 396 466
-467 -75
-467 397
75 -397 467
-468 -49
-468 318
49 -318 468
-469 22
-469 -468
-22 468 469
469
